(set-logic QF_S)
(declare-fun var0 () String)
(assert (str.in.re var0 (re.++ (re.+ (re.* (str.to.re "000"))) (re.++ (re.* (re.* (str.to.re "111"))) (re.++ (re.union (re.+ (str.to.re "22")) (re.+ (str.to.re "3"))) (re.++ (re.+ (re.* (str.to.re "444"))) (re.union (re.* (str.to.re "55")) (re.* (str.to.re "6")))))))))
(check-sat)